Traveling Salesman Problem/TSP_generados/Aleatorio1620391172_14.tsp
NAME: Aleatorio1620391172_14.tsp
COMMENT: Randomly generated scenario
TYPE: TSP
DIMENSION: 14
EDGE_WEIGHT_TYPE: ATT
NODE_COORD_SECTION
1 9.11 41.24
2 31.2 32.92
3 3.33 4.92
4 22.35 1.98
5 41.51 44.27
6 15.38 30.58
7 44.05 29.29
8 16.92 25.69
9 24.55 17.7
10 8.4 22.81
11 16.28 37.89
12 18.22 22.08
13 3.34 12.48
14 17.28 42.29
