Traveling Salesman Problem/TSP_generados/Aleatorio1620391172_14.opt.tour
NAME: Aleatorio1620391172_14.opt.tour
COMMENT: Optimal solution for Aleatorio1620391172_14 (165.97581475835977)
TYPE: TOUR
DIMENSION: 14
TOUR_SECTION
1 11 6 8 12 10 13 3 4 9 2 7 5 14
-1
EOF
